13849
0 0 0 0 1 1 0 1 1 1 1 0 0 1 0 0 1 0 1 0 1 1 1 0 0 1 0 0 0 0
21 20 9 16 20 8 13 18 21 9 8 13 18 22 5 21 16 8 21 5 21 16 8 7 16 22 20 9 5 25 4 13 10 9 4 21 20 9 25 16 4 21 22 18 4 7 20 8 7 9 22 13 8 7 13 22 18 8 8 16 22 13 8 7 9 4 13 10 9 4 20 22 18 18 4 10 7 16 7 7 4 13 10 7 4 21 16 21 4 20 4 13 18 9 4 8 16 18 21 5 4 13 10 9 4 22 20 9 5 13 22 20 16 5 9 22 16 8 25 9 7 20 8 5 13 21 20 16 13 7 10 16 16 7 7 21 16 8 5 9 8 13 18 18 21 18 20 8 5 5